(declare-const a Real)
(declare-const b Real)
(declare-const c Real)
(assert (= (+ a b c) 3))
(assert (> a 0))
(assert (> b 0))
(assert (> c 0))
(assert (not (<= (+ -7 (* (pow (+ (pow (+ a b) 2) (* 2 (pow c 2))) -1) (pow (+ a b (* 2 c)) 2)) (* (pow (+ (pow (+ a c) 2) (* 2 (pow b 2))) -1) (pow (+ a c (* 2 b)) 2)) (* (pow (+ (* 2 (pow (+ b c) 2)) (* 4 (pow a 2))) -1) (pow (+ b c (* 2 a)) 2)) (* 2 a (pow (+ (* 2 (pow (+ b c) 2)) (* 4 (pow a 2))) -1) (+ 1 (pow a 2)))) 0)))
(check-sat)
(get-model)
(exit)